n=8;
hearts=1;
clubs=1;
spades=43;
diamonds=35;
blocked=8;
m=array2d(1..n, 1..n,[
	_,_,_,_,_,1,_,_,
	_,3,_,_,_,_,_,_,
	_,_,_,_,5,_,_,2,
	_,_,5,_,5,_,5,5,
	_,_,_,_,_,_,_,_,
	_,_,_,_,_,_,_,_,
	_,_,_,_,_,_,5,_,
	_,5,_,_,_,_,5,_
]);
